14° run output:
{
    "Function": "kroB400.tsp",
    "Problem dimension": [
        292,
        54,
        148,
        66,
        210,
        332,
        365,
        208,
        214,
        315,
        254,
        341,
        143,
        266,
        191,
        76,
        264,
        98,
        128,
        268,
        90,
        115,
        53,
        7,
        25,
        29,
        273,
        243,
        367,
        93,
        302,
        172,
        313,
        269,
        376,
        178,
        368,
        327,
        287,
        137,
        336,
        240,
        225,
        100,
        229,
        250,
        248,
        51,
        75,
        387,
        282,
        233,
        154,
        17,
        103,
        198,
        337,
        347,
        136,
        35,
        395,
        14,
        242,
        221,
        277,
        157,
        2,
        345,
        63,
        86,
        156,
        366,
        262,
        286,
        190,
        122,
        48,
        285,
        289,
        15,
        119,
        102,
        205,
        322,
        42,
        226,
        3,
        245,
        47,
        323,
        217,
        27,
        196,
        193,
        74,
        165,
        344,
        393,
        127,
        253,
        218,
        113,
        224,
        354,
        391,
        281,
        84,
        303,
        244,
        381,
        305,
        38,
        324,
        187,
        290,
        374,
        335,
        132,
        181,
        247,
        330,
        184,
        373,
        206,
        398,
        166,
        173,
        325,
        309,
        101,
        265,
        296,
        353,
        379,
        151,
        97,
        121,
        110,
        161,
        37,
        68,
        59,
        234,
        377,
        6,
        49,
        22,
        138,
        10,
        92,
        358,
        55,
        186,
        272,
        397,
        155,
        34,
        171,
        304,
        216,
        261,
        204,
        182,
        222,
        44,
        202,
        271,
        116,
        52,
        352,
        328,
        246,
        45,
        284,
        104,
        91,
        82,
        274,
        220,
        383,
        300,
        251,
        61,
        131,
        312,
        298,
        26,
        275,
        13,
        144,
        326,
        24,
        279,
        359,
        163,
        85,
        334,
        188,
        219,
        117,
        267,
        43,
        212,
        118,
        392,
        349,
        40,
        227,
        64,
        207,
        200,
        28,
        252,
        321,
        394,
        69,
        319,
        301,
        307,
        263,
        390,
        79,
        355,
        168,
        174,
        160,
        320,
        57,
        78,
        158,
        201,
        370,
        361,
        135,
        297,
        257,
        130,
        170,
        228,
        50,
        396,
        41,
        167,
        280,
        318,
        372,
        94,
        255,
        340,
        179,
        108,
        180,
        342,
        0,
        133,
        331,
        16,
        215,
        111,
        107,
        388,
        176,
        20,
        123,
        126,
        314,
        223,
        19,
        183,
        114,
        237,
        77,
        230,
        362,
        364,
        162,
        1,
        311,
        356,
        385,
        159,
        338,
        95,
        124,
        177,
        89,
        278,
        231,
        357,
        299,
        363,
        67,
        80,
        71,
        18,
        99,
        283,
        11,
        351,
        241,
        32,
        236,
        12,
        270,
        152,
        192,
        87,
        36,
        288,
        399,
        62,
        295,
        88,
        259,
        8,
        258,
        371,
        333,
        339,
        139,
        164,
        382,
        23,
        375,
        308,
        149,
        276,
        294,
        65,
        306,
        46,
        310,
        31,
        58,
        73,
        142,
        153,
        33,
        350,
        106,
        197,
        346,
        72,
        238,
        195,
        96,
        389,
        112,
        378,
        4,
        189,
        70,
        291,
        147,
        199,
        150,
        232,
        260,
        129,
        140,
        209,
        145,
        211,
        141,
        369,
        380,
        317,
        9,
        316,
        21,
        386,
        83,
        56,
        185,
        235,
        60,
        213,
        5,
        249,
        348,
        329,
        39,
        169,
        239,
        175,
        105,
        203,
        125,
        343,
        30,
        194,
        109,
        81,
        120,
        384,
        146,
        256,
        293,
        360,
        134
    ],
    "Global Optimum": 0,
    "Algorithm": "Genetic algorithm",
    "Parameters": {
        "population": 30,
        "offspring": 30,
        "mutation probability": 0.0025,
        "crossover probability": 0.9
    },
    "Fitness": 425418,
    "Solution": [
        292,
        54,
        148,
        66,
        210,
        332,
        365,
        208,
        214,
        315,
        254,
        341,
        143,
        266,
        191,
        76,
        264,
        98,
        128,
        268,
        90,
        115,
        53,
        7,
        25,
        29,
        273,
        243,
        367,
        93,
        302,
        172,
        313,
        269,
        376,
        178,
        368,
        327,
        287,
        137,
        336,
        240,
        225,
        100,
        229,
        250,
        248,
        51,
        75,
        387,
        282,
        233,
        154,
        17,
        103,
        198,
        337,
        347,
        136,
        35,
        395,
        14,
        242,
        221,
        277,
        157,
        2,
        345,
        63,
        86,
        156,
        366,
        262,
        286,
        190,
        122,
        48,
        285,
        289,
        15,
        119,
        102,
        205,
        322,
        42,
        226,
        3,
        245,
        47,
        323,
        217,
        27,
        196,
        193,
        74,
        165,
        344,
        393,
        127,
        253,
        218,
        113,
        224,
        354,
        391,
        281,
        84,
        303,
        244,
        381,
        305,
        38,
        324,
        187,
        290,
        374,
        335,
        132,
        181,
        247,
        330,
        184,
        373,
        206,
        398,
        166,
        173,
        325,
        309,
        101,
        265,
        296,
        353,
        379,
        151,
        97,
        121,
        110,
        161,
        37,
        68,
        59,
        234,
        377,
        6,
        49,
        22,
        138,
        10,
        92,
        358,
        55,
        186,
        272,
        397,
        155,
        34,
        171,
        304,
        216,
        261,
        204,
        182,
        222,
        44,
        202,
        271,
        116,
        52,
        352,
        328,
        246,
        45,
        284,
        104,
        91,
        82,
        274,
        220,
        383,
        300,
        251,
        61,
        131,
        312,
        298,
        26,
        275,
        13,
        144,
        326,
        24,
        279,
        359,
        163,
        85,
        334,
        188,
        219,
        117,
        267,
        43,
        212,
        118,
        392,
        349,
        40,
        227,
        64,
        207,
        200,
        28,
        252,
        321,
        394,
        69,
        319,
        301,
        307,
        263,
        390,
        79,
        355,
        168,
        174,
        160,
        320,
        57,
        78,
        158,
        201,
        370,
        361,
        135,
        297,
        257,
        130,
        170,
        228,
        50,
        396,
        41,
        167,
        280,
        318,
        372,
        94,
        255,
        340,
        179,
        108,
        180,
        342,
        0,
        133,
        331,
        16,
        215,
        111,
        107,
        388,
        176,
        20,
        123,
        126,
        314,
        223,
        19,
        183,
        114,
        237,
        77,
        230,
        362,
        364,
        162,
        1,
        311,
        356,
        385,
        159,
        338,
        95,
        124,
        177,
        89,
        278,
        231,
        357,
        299,
        363,
        67,
        80,
        71,
        18,
        99,
        283,
        11,
        351,
        241,
        32,
        236,
        12,
        270,
        152,
        192,
        87,
        36,
        288,
        399,
        62,
        295,
        88,
        259,
        8,
        258,
        371,
        333,
        339,
        139,
        164,
        382,
        23,
        375,
        308,
        149,
        276,
        294,
        65,
        306,
        46,
        310,
        31,
        58,
        73,
        142,
        153,
        33,
        350,
        106,
        197,
        346,
        72,
        238,
        195,
        96,
        389,
        112,
        378,
        4,
        189,
        70,
        291,
        147,
        199,
        150,
        232,
        260,
        129,
        140,
        209,
        145,
        211,
        141,
        369,
        380,
        317,
        9,
        316,
        21,
        386,
        83,
        56,
        185,
        235,
        60,
        213,
        5,
        249,
        348,
        329,
        39,
        169,
        239,
        175,
        105,
        203,
        125,
        343,
        30,
        194,
        109,
        81,
        120,
        384,
        146,
        256,
        293,
        360,
        134
    ],
    "Nb of functions evaluations": 200010,
    "Computational time in seconds": 553.4718255996704,
    "Stopping criterion in evaluations": 200000
}